model-Graph 2.sol
# Objective value = 0
I0(5) 1
I1(4) 0
I2(5) 1
I3(3) 1
I4(4) 0
I5(3) 1
I6(4) 0
I7(5) 1
I8(4) 0
I9(3) 1
I10(5) 1
I11(3) 1
I12(4) 10
I13(4) 0
I14(4) 10
I15(0) 20
I16(4) 0
I17(0) 20
I18(4) 0
I19(4) 20
I20(4) 0
I21(0) 20
I22(4) 20
I23(0) 20
I24(8) 10
I25(8) 20
